%chk=water.chk
#P B3LYP/6-31G(d)

Water molecule

0 1
O                  0.000000000000        0.000000000000        0.117740000000
H                  0.000000000000        0.755424000000       -0.470960000000
H                  0.000000000000       -0.755424000000       -0.470960000000

